p edge 113 1970
e 1 5
e 1 6
e 1 7
e 1 8
e 1 10
e 1 14
e 1 15
e 1 17
e 1 18
e 1 19
e 1 20
e 1 28
e 1 30
e 1 36
e 1 41
e 1 42
e 1 45
e 1 48
e 1 49
e 1 50
e 1 51
e 1 57
e 1 59
e 1 63
e 1 65
e 1 79
e 1 81
e 1 83
e 1 85
e 1 86
e 1 87
e 1 88
e 1 94
e 1 95
e 1 96
e 1 99
e 1 111
e 1 112
e 1 113
e 2 7
e 2 13
e 2 17
e 2 22
e 2 23
e 2 25
e 2 39
e 2 40
e 2 41
e 2 42
e 2 45
e 2 51
e 2 58
e 2 60
e 2 62
e 2 68
e 2 69
e 2 72
e 2 75
e 2 77
e 2 80
e 2 82
e 2 87
e 2 89
e 2 92
e 2 93
e 2 94
e 2 101
e 2 105
e 2 106
e 2 111
e 3 6
e 3 8
e 3 13
e 3 22
e 3 25
e 3 27
e 3 33
e 3 35
e 3 48
e 3 50
e 3 51
e 3 53
e 3 54
e 3 55
e 3 60
e 3 66
e 3 67
e 3 72
e 3 75
e 3 76
e 3 79
e 3 82
e 3 85
e 3 90
e 3 92
e 3 93
e 3 94
e 3 96
e 3 98
e 3 99
e 3 105
e 3 111
e 4 5
e 4 12
e 4 15
e 4 17
e 4 19
e 4 21
e 4 22
e 4 24
e 4 30
e 4 33
e 4 36
e 4 48
e 4 49
e 4 51
e 4 53
e 4 54
e 4 55
e 4 58
e 4 63
e 4 66
e 4 67
e 4 68
e 4 69
e 4 74
e 4 75
e 4 77
e 4 79
e 4 87
e 4 90
e 4 98
e 4 99
e 4 102
e 4 104
e 4 107
e 4 111
e 5 6
e 5 11
e 5 13
e 5 16
e 5 17
e 5 21
e 5 22
e 5 25
e 5 28
e 5 36
e 5 37
e 5 41
e 5 47
e 5 49
e 5 50
e 5 53
e 5 56
e 5 58
e 5 62
e 5 64
e 5 66
e 5 72
e 5 76
e 5 79
e 5 87
e 5 89
e 5 98
e 5 100
e 5 101
e 5 106
e 5 111
e 6 9
e 6 10
e 6 11
e 6 16
e 6 17
e 6 18
e 6 20
e 6 22
e 6 25
e 6 30
e 6 31
e 6 32
e 6 37
e 6 39
e 6 41
e 6 42
e 6 44
e 6 54
e 6 55
e 6 56
e 6 61
e 6 66
e 6 70
e 6 72
e 6 76
e 6 77
e 6 92
e 6 94
e 6 95
e 6 97
e 6 101
e 6 113
e 7 8
e 7 9
e 7 12
e 7 22
e 7 23
e 7 44
e 7 47
e 7 49
e 7 50
e 7 52
e 7 61
e 7 65
e 7 68
e 7 69
e 7 72
e 7 73
e 7 76
e 7 77
e 7 79
e 7 81
e 7 84
e 7 85
e 7 91
e 7 96
e 7 99
e 7 100
e 7 105
e 7 111
e 8 15
e 8 18
e 8 22
e 8 23
e 8 28
e 8 33
e 8 34
e 8 36
e 8 38
e 8 43
e 8 46
e 8 47
e 8 52
e 8 53
e 8 57
e 8 61
e 8 62
e 8 64
e 8 67
e 8 71
e 8 73
e 8 74
e 8 75
e 8 77
e 8 82
e 8 83
e 8 90
e 8 92
e 8 97
e 8 98
e 8 99
e 8 100
e 8 101
e 8 105
e 8 106
e 8 110
e 9 10
e 9 13
e 9 15
e 9 18
e 9 19
e 9 25
e 9 26
e 9 40
e 9 41
e 9 44
e 9 48
e 9 49
e 9 50
e 9 53
e 9 55
e 9 56
e 9 61
e 9 63
e 9 66
e 9 70
e 9 75
e 9 77
e 9 84
e 9 99
e 9 100
e 9 102
e 9 106
e 10 16
e 10 21
e 10 24
e 10 37
e 10 44
e 10 46
e 10 47
e 10 48
e 10 49
e 10 50
e 10 62
e 10 63
e 10 65
e 10 68
e 10 72
e 10 73
e 10 74
e 10 81
e 10 85
e 10 87
e 10 90
e 10 95
e 10 97
e 10 99
e 10 105
e 10 107
e 10 109
e 10 113
e 11 13
e 11 16
e 11 22
e 11 27
e 11 29
e 11 30
e 11 32
e 11 34
e 11 35
e 11 37
e 11 40
e 11 41
e 11 44
e 11 45
e 11 47
e 11 51
e 11 55
e 11 57
e 11 72
e 11 74
e 11 76
e 11 77
e 11 78
e 11 81
e 11 83
e 11 89
e 11 95
e 11 96
e 11 100
e 11 107
e 11 108
e 11 110
e 11 111
e 12 13
e 12 18
e 12 20
e 12 22
e 12 24
e 12 29
e 12 30
e 12 32
e 12 33
e 12 34
e 12 35
e 12 36
e 12 39
e 12 43
e 12 44
e 12 45
e 12 46
e 12 51
e 12 53
e 12 56
e 12 57
e 12 58
e 12 64
e 12 67
e 12 68
e 12 72
e 12 78
e 12 79
e 12 92
e 12 98
e 12 106
e 12 107
e 12 108
e 12 109
e 12 112
e 13 15
e 13 16
e 13 19
e 13 20
e 13 21
e 13 25
e 13 28
e 13 29
e 13 36
e 13 40
e 13 42
e 13 44
e 13 52
e 13 54
e 13 55
e 13 59
e 13 60
e 13 68
e 13 69
e 13 71
e 13 72
e 13 73
e 13 74
e 13 76
e 13 77
e 13 79
e 13 83
e 13 87
e 13 89
e 13 91
e 13 97
e 13 99
e 13 102
e 13 103
e 13 106
e 13 109
e 13 112
e 14 15
e 14 17
e 14 18
e 14 25
e 14 26
e 14 30
e 14 33
e 14 34
e 14 37
e 14 39
e 14 41
e 14 45
e 14 50
e 14 51
e 14 52
e 14 56
e 14 65
e 14 66
e 14 67
e 14 71
e 14 74
e 14 78
e 14 79
e 14 81
e 14 88
e 14 89
e 14 97
e 14 98
e 14 102
e 14 108
e 14 110
e 14 111
e 14 112
e 14 113
e 15 16
e 15 18
e 15 24
e 15 26
e 15 29
e 15 33
e 15 34
e 15 36
e 15 40
e 15 48
e 15 55
e 15 56
e 15 58
e 15 60
e 15 63
e 15 67
e 15 70
e 15 74
e 15 75
e 15 81
e 15 82
e 15 84
e 15 87
e 15 93
e 15 99
e 15 113
e 16 17
e 16 19
e 16 21
e 16 23
e 16 24
e 16 31
e 16 34
e 16 40
e 16 43
e 16 46
e 16 47
e 16 50
e 16 52
e 16 55
e 16 60
e 16 61
e 16 62
e 16 63
e 16 65
e 16 74
e 16 75
e 16 80
e 16 83
e 16 88
e 16 89
e 16 93
e 16 99
e 16 108
e 16 110
e 17 19
e 17 20
e 17 21
e 17 22
e 17 27
e 17 28
e 17 33
e 17 35
e 17 37
e 17 39
e 17 41
e 17 55
e 17 56
e 17 58
e 17 60
e 17 62
e 17 63
e 17 65
e 17 66
e 17 68
e 17 69
e 17 72
e 17 73
e 17 74
e 17 78
e 17 79
e 17 85
e 17 87
e 17 88
e 17 89
e 17 90
e 17 91
e 17 93
e 17 96
e 17 102
e 17 113
e 18 20
e 18 24
e 18 31
e 18 35
e 18 36
e 18 37
e 18 39
e 18 43
e 18 44
e 18 45
e 18 49
e 18 50
e 18 58
e 18 67
e 18 69
e 18 73
e 18 74
e 18 75
e 18 79
e 18 80
e 18 83
e 18 84
e 18 85
e 18 89
e 18 90
e 18 94
e 18 95
e 18 102
e 18 103
e 18 105
e 18 110
e 19 20
e 19 24
e 19 25
e 19 29
e 19 35
e 19 44
e 19 47
e 19 55
e 19 57
e 19 58
e 19 61
e 19 67
e 19 70
e 19 72
e 19 76
e 19 77
e 19 78
e 19 79
e 19 80
e 19 83
e 19 92
e 19 96
e 19 101
e 19 102
e 19 103
e 19 105
e 19 106
e 19 107
e 19 112
e 19 113
e 20 21
e 20 23
e 20 24
e 20 26
e 20 27
e 20 33
e 20 40
e 20 48
e 20 58
e 20 60
e 20 62
e 20 67
e 20 72
e 20 74
e 20 75
e 20 76
e 20 77
e 20 85
e 20 86
e 20 92
e 20 98
e 20 100
e 20 102
e 21 23
e 21 24
e 21 30
e 21 31
e 21 35
e 21 36
e 21 44
e 21 46
e 21 49
e 21 51
e 21 52
e 21 53
e 21 55
e 21 57
e 21 61
e 21 63
e 21 67
e 21 68
e 21 69
e 21 70
e 21 71
e 21 74
e 21 75
e 21 76
e 21 78
e 21 80
e 21 83
e 21 84
e 21 87
e 21 93
e 21 109
e 21 110
e 22 24
e 22 25
e 22 27
e 22 30
e 22 40
e 22 46
e 22 50
e 22 51
e 22 53
e 22 54
e 22 58
e 22 59
e 22 60
e 22 61
e 22 62
e 22 65
e 22 66
e 22 67
e 22 74
e 22 80
e 22 86
e 22 91
e 22 93
e 22 95
e 22 98
e 22 99
e 22 102
e 22 107
e 22 109
e 22 110
e 22 112
e 23 25
e 23 33
e 23 36
e 23 38
e 23 40
e 23 41
e 23 42
e 23 53
e 23 56
e 23 62
e 23 66
e 23 68
e 23 69
e 23 70
e 23 82
e 23 84
e 23 96
e 23 102
e 23 107
e 23 112
e 24 32
e 24 50
e 24 55
e 24 60
e 24 62
e 24 70
e 24 71
e 24 87
e 24 89
e 24 91
e 24 97
e 24 110
e 24 111
e 25 32
e 25 37
e 25 39
e 25 40
e 25 41
e 25 42
e 25 43
e 25 44
e 25 46
e 25 48
e 25 49
e 25 51
e 25 53
e 25 54
e 25 55
e 25 57
e 25 61
e 25 65
e 25 66
e 25 68
e 25 69
e 25 70
e 25 75
e 25 77
e 25 82
e 25 86
e 25 87
e 25 89
e 25 91
e 25 92
e 25 94
e 25 95
e 25 96
e 25 97
e 25 109
e 25 112
e 26 34
e 26 35
e 26 40
e 26 41
e 26 43
e 26 46
e 26 50
e 26 51
e 26 55
e 26 63
e 26 68
e 26 71
e 26 73
e 26 74
e 26 76
e 26 77
e 26 80
e 26 81
e 26 83
e 26 95
e 26 96
e 26 101
e 26 113
e 27 28
e 27 33
e 27 34
e 27 35
e 27 37
e 27 38
e 27 39
e 27 43
e 27 47
e 27 50
e 27 53
e 27 56
e 27 58
e 27 61
e 27 63
e 27 68
e 27 69
e 27 74
e 27 76
e 27 77
e 27 81
e 27 85
e 27 86
e 27 89
e 27 90
e 27 94
e 27 99
e 27 103
e 27 104
e 27 113
e 28 35
e 28 39
e 28 40
e 28 42
e 28 43
e 28 48
e 28 49
e 28 53
e 28 58
e 28 60
e 28 61
e 28 62
e 28 63
e 28 67
e 28 75
e 28 76
e 28 78
e 28 84
e 28 90
e 28 96
e 28 101
e 28 103
e 28 104
e 28 107
e 28 108
e 28 111
e 29 30
e 29 31
e 29 33
e 29 35
e 29 37
e 29 39
e 29 40
e 29 44
e 29 50
e 29 53
e 29 55
e 29 59
e 29 64
e 29 68
e 29 71
e 29 76
e 29 77
e 29 79
e 29 81
e 29 82
e 29 85
e 29 86
e 29 98
e 29 102
e 29 107
e 29 110
e 29 111
e 29 113
e 30 31
e 30 33
e 30 42
e 30 52
e 30 54
e 30 55
e 30 65
e 30 66
e 30 68
e 30 72
e 30 75
e 30 78
e 30 81
e 30 82
e 30 95
e 30 96
e 30 100
e 30 103
e 30 107
e 31 34
e 31 35
e 31 44
e 31 46
e 31 47
e 31 51
e 31 53
e 31 58
e 31 60
e 31 65
e 31 77
e 31 78
e 31 81
e 31 84
e 31 87
e 31 89
e 31 90
e 31 91
e 31 95
e 31 98
e 31 104
e 31 105
e 31 107
e 31 109
e 32 34
e 32 35
e 32 40
e 32 41
e 32 42
e 32 44
e 32 46
e 32 53
e 32 54
e 32 55
e 32 58
e 32 60
e 32 63
e 32 67
e 32 69
e 32 84
e 32 87
e 32 88
e 32 89
e 32 98
e 32 107
e 32 108
e 32 109
e 32 110
e 32 112
e 32 113
e 33 34
e 33 35
e 33 40
e 33 45
e 33 48
e 33 52
e 33 59
e 33 66
e 33 67
e 33 69
e 33 70
e 33 76
e 33 77
e 33 79
e 33 84
e 33 85
e 33 86
e 33 91
e 33 92
e 33 93
e 33 94
e 33 98
e 33 99
e 33 104
e 33 105
e 33 108
e 33 110
e 34 38
e 34 42
e 34 45
e 34 46
e 34 48
e 34 50
e 34 51
e 34 54
e 34 58
e 34 62
e 34 63
e 34 64
e 34 66
e 34 76
e 34 77
e 34 81
e 34 82
e 34 83
e 34 84
e 34 87
e 34 89
e 34 94
e 34 97
e 34 99
e 34 100
e 34 103
e 34 105
e 34 106
e 34 107
e 34 112
e 35 36
e 35 39
e 35 43
e 35 50
e 35 55
e 35 60
e 35 61
e 35 64
e 35 67
e 35 68
e 35 72
e 35 75
e 35 77
e 35 83
e 35 86
e 35 88
e 35 95
e 35 98
e 35 99
e 35 101
e 35 103
e 35 106
e 35 111
e 35 113
e 36 37
e 36 38
e 36 39
e 36 40
e 36 43
e 36 45
e 36 46
e 36 51
e 36 52
e 36 54
e 36 55
e 36 56
e 36 57
e 36 58
e 36 63
e 36 67
e 36 70
e 36 74
e 36 79
e 36 84
e 36 86
e 36 90
e 36 92
e 36 95
e 36 98
e 36 101
e 36 104
e 36 108
e 36 109
e 36 111
e 36 112
e 37 39
e 37 40
e 37 45
e 37 46
e 37 47
e 37 51
e 37 52
e 37 56
e 37 57
e 37 58
e 37 66
e 37 73
e 37 76
e 37 78
e 37 83
e 37 84
e 37 89
e 37 91
e 37 93
e 37 95
e 37 103
e 37 105
e 37 111
e 37 113
e 38 40
e 38 41
e 38 42
e 38 43
e 38 46
e 38 49
e 38 50
e 38 53
e 38 57
e 38 60
e 38 61
e 38 64
e 38 70
e 38 72
e 38 74
e 38 75
e 38 77
e 38 78
e 38 79
e 38 80
e 38 81
e 38 84
e 38 85
e 38 96
e 38 100
e 38 105
e 38 108
e 38 111
e 38 113
e 39 42
e 39 43
e 39 45
e 39 49
e 39 51
e 39 52
e 39 55
e 39 61
e 39 62
e 39 65
e 39 70
e 39 75
e 39 81
e 39 94
e 39 99
e 39 100
e 39 102
e 39 103
e 39 105
e 39 112
e 40 42
e 40 43
e 40 45
e 40 48
e 40 49
e 40 51
e 40 52
e 40 56
e 40 57
e 40 61
e 40 63
e 40 68
e 40 69
e 40 72
e 40 74
e 40 75
e 40 76
e 40 87
e 40 88
e 40 89
e 40 91
e 40 100
e 40 104
e 40 109
e 40 110
e 40 113
e 41 44
e 41 48
e 41 49
e 41 52
e 41 56
e 41 61
e 41 65
e 41 67
e 41 72
e 41 73
e 41 77
e 41 79
e 41 90
e 41 92
e 41 102
e 41 106
e 41 111
e 41 112
e 41 113
e 42 43
e 42 47
e 42 54
e 42 59
e 42 66
e 42 67
e 42 77
e 42 78
e 42 82
e 42 84
e 42 86
e 42 90
e 42 94
e 42 96
e 42 97
e 42 99
e 42 104
e 42 112
e 43 44
e 43 45
e 43 47
e 43 48
e 43 49
e 43 50
e 43 51
e 43 57
e 43 59
e 43 65
e 43 66
e 43 68
e 43 69
e 43 72
e 43 74
e 43 78
e 43 85
e 43 104
e 43 105
e 43 109
e 43 113
e 44 47
e 44 49
e 44 51
e 44 52
e 44 59
e 44 61
e 44 65
e 44 66
e 44 67
e 44 70
e 44 71
e 44 73
e 44 75
e 44 78
e 44 81
e 44 90
e 44 91
e 44 94
e 44 99
e 44 101
e 44 102
e 44 103
e 44 106
e 44 112
e 44 113
e 45 46
e 45 47
e 45 48
e 45 52
e 45 60
e 45 61
e 45 65
e 45 69
e 45 73
e 45 74
e 45 77
e 45 78
e 45 83
e 45 84
e 45 92
e 45 96
e 45 98
e 45 102
e 45 104
e 45 105
e 45 112
e 45 113
e 46 48
e 46 50
e 46 53
e 46 54
e 46 55
e 46 58
e 46 59
e 46 60
e 46 62
e 46 65
e 46 67
e 46 72
e 46 78
e 46 79
e 46 80
e 46 81
e 46 83
e 46 88
e 46 92
e 46 93
e 46 94
e 46 95
e 46 97
e 46 98
e 46 101
e 46 104
e 46 107
e 46 108
e 47 48
e 47 49
e 47 51
e 47 55
e 47 58
e 47 63
e 47 66
e 47 76
e 47 84
e 47 89
e 47 90
e 47 93
e 47 98
e 47 99
e 47 100
e 47 103
e 47 109
e 47 110
e 48 59
e 48 61
e 48 62
e 48 63
e 48 70
e 48 72
e 48 73
e 48 74
e 48 75
e 48 76
e 48 79
e 48 83
e 48 84
e 48 86
e 48 89
e 48 94
e 48 99
e 48 104
e 48 108
e 48 109
e 49 52
e 49 54
e 49 56
e 49 60
e 49 63
e 49 64
e 49 66
e 49 70
e 49 72
e 49 80
e 49 85
e 49 87
e 49 88
e 49 96
e 49 97
e 49 98
e 49 102
e 49 103
e 49 105
e 49 107
e 49 112
e 50 52
e 50 54
e 50 55
e 50 57
e 50 59
e 50 61
e 50 63
e 50 65
e 50 71
e 50 79
e 50 80
e 50 84
e 50 87
e 50 88
e 50 90
e 50 91
e 50 96
e 50 101
e 50 110
e 50 111
e 50 112
e 51 54
e 51 57
e 51 58
e 51 59
e 51 62
e 51 63
e 51 64
e 51 68
e 51 77
e 51 78
e 51 82
e 51 85
e 51 86
e 51 103
e 51 107
e 51 108
e 51 111
e 51 112
e 52 54
e 52 57
e 52 59
e 52 64
e 52 66
e 52 72
e 52 73
e 52 76
e 52 90
e 52 91
e 52 93
e 52 100
e 52 104
e 52 110
e 53 57
e 53 67
e 53 69
e 53 72
e 53 73
e 53 75
e 53 77
e 53 79
e 53 82
e 53 85
e 53 92
e 53 95
e 53 96
e 53 97
e 53 100
e 53 101
e 53 102
e 53 103
e 53 106
e 53 112
e 54 55
e 54 56
e 54 58
e 54 59
e 54 61
e 54 66
e 54 71
e 54 72
e 54 74
e 54 76
e 54 77
e 54 79
e 54 85
e 54 86
e 54 92
e 54 95
e 54 100
e 54 102
e 54 110
e 55 58
e 55 61
e 55 62
e 55 63
e 55 64
e 55 70
e 55 71
e 55 72
e 55 73
e 55 74
e 55 75
e 55 76
e 55 78
e 55 81
e 55 83
e 55 87
e 55 90
e 55 92
e 55 104
e 55 105
e 55 107
e 55 109
e 55 111
e 56 62
e 56 63
e 56 65
e 56 67
e 56 71
e 56 72
e 56 76
e 56 79
e 56 81
e 56 87
e 56 92
e 56 96
e 56 98
e 56 101
e 56 105
e 56 112
e 56 113
e 57 58
e 57 59
e 57 61
e 57 62
e 57 69
e 57 70
e 57 72
e 57 73
e 57 76
e 57 89
e 57 90
e 57 97
e 57 99
e 57 101
e 57 104
e 57 112
e 58 59
e 58 61
e 58 62
e 58 68
e 58 71
e 58 73
e 58 76
e 58 78
e 58 92
e 58 95
e 58 96
e 58 97
e 58 98
e 58 102
e 58 105
e 58 110
e 59 60
e 59 61
e 59 62
e 59 65
e 59 66
e 59 73
e 59 74
e 59 77
e 59 79
e 59 83
e 59 84
e 59 86
e 59 91
e 59 94
e 59 95
e 59 96
e 59 98
e 59 100
e 59 102
e 59 103
e 59 104
e 59 107
e 59 110
e 59 112
e 60 63
e 60 64
e 60 69
e 60 71
e 60 72
e 60 73
e 60 78
e 60 80
e 60 81
e 60 84
e 60 85
e 60 88
e 60 96
e 60 104
e 60 105
e 60 109
e 60 110
e 61 65
e 61 70
e 61 71
e 61 75
e 61 77
e 61 79
e 61 85
e 61 87
e 61 88
e 61 93
e 61 98
e 61 99
e 61 100
e 61 108
e 62 64
e 62 65
e 62 66
e 62 67
e 62 71
e 62 72
e 62 73
e 62 75
e 62 77
e 62 79
e 62 82
e 62 85
e 62 90
e 62 92
e 62 100
e 62 104
e 62 107
e 63 67
e 63 68
e 63 73
e 63 75
e 63 76
e 63 77
e 63 82
e 63 84
e 63 85
e 63 88
e 63 90
e 63 94
e 63 97
e 63 102
e 63 107
e 63 108
e 63 112
e 64 65
e 64 69
e 64 81
e 64 85
e 64 86
e 64 89
e 64 91
e 64 107
e 64 110
e 64 112
e 65 66
e 65 69
e 65 70
e 65 71
e 65 75
e 65 78
e 65 79
e 65 84
e 65 90
e 65 96
e 65 99
e 65 100
e 65 103
e 65 106
e 65 108
e 65 111
e 66 67
e 66 68
e 66 70
e 66 71
e 66 77
e 66 78
e 66 81
e 66 89
e 66 90
e 66 93
e 66 101
e 66 103
e 66 104
e 66 106
e 66 107
e 66 113
e 67 72
e 67 77
e 67 79
e 67 81
e 67 89
e 67 90
e 67 93
e 67 97
e 67 100
e 67 104
e 67 107
e 67 110
e 67 112
e 68 70
e 68 79
e 68 82
e 68 84
e 68 85
e 68 87
e 68 91
e 68 92
e 68 95
e 68 98
e 68 100
e 68 104
e 68 106
e 68 109
e 69 70
e 69 74
e 69 77
e 69 78
e 69 80
e 69 83
e 69 85
e 69 87
e 69 91
e 69 92
e 69 93
e 69 94
e 69 97
e 69 98
e 69 101
e 69 102
e 69 103
e 69 104
e 70 72
e 70 75
e 70 76
e 70 80
e 70 83
e 70 88
e 70 89
e 70 91
e 70 94
e 70 97
e 70 98
e 70 101
e 70 103
e 70 107
e 70 108
e 71 72
e 71 75
e 71 79
e 71 80
e 71 84
e 71 87
e 71 95
e 71 100
e 71 104
e 71 105
e 71 107
e 71 109
e 72 75
e 72 78
e 72 92
e 72 94
e 72 99
e 72 104
e 72 108
e 72 109
e 72 110
e 72 111
e 73 77
e 73 79
e 73 81
e 73 84
e 73 90
e 73 91
e 73 97
e 73 100
e 73 101
e 73 103
e 73 105
e 73 106
e 73 112
e 73 113
e 74 75
e 74 78
e 74 85
e 74 93
e 74 95
e 74 96
e 74 97
e 74 100
e 74 101
e 74 103
e 74 104
e 74 106
e 74 110
e 74 111
e 75 79
e 75 80
e 75 84
e 75 85
e 75 88
e 75 92
e 75 96
e 75 97
e 75 98
e 75 99
e 75 102
e 75 107
e 75 110
e 76 79
e 76 80
e 76 81
e 76 83
e 76 84
e 76 87
e 76 88
e 76 90
e 76 91
e 76 92
e 76 95
e 76 98
e 76 106
e 77 83
e 77 85
e 77 86
e 77 92
e 77 94
e 77 99
e 77 100
e 77 102
e 77 103
e 77 105
e 77 107
e 78 87
e 78 96
e 78 97
e 78 99
e 78 100
e 78 102
e 78 106
e 78 111
e 79 80
e 79 83
e 79 86
e 79 88
e 79 91
e 79 93
e 79 94
e 79 95
e 79 97
e 79 98
e 79 103
e 79 104
e 79 112
e 80 83
e 80 84
e 80 88
e 80 89
e 80 90
e 80 91
e 80 94
e 80 95
e 80 98
e 80 101
e 80 108
e 80 110
e 81 82
e 81 86
e 81 90
e 81 92
e 81 100
e 81 107
e 82 85
e 82 88
e 82 90
e 82 92
e 82 93
e 82 94
e 82 96
e 82 98
e 82 102
e 82 105
e 82 106
e 82 108
e 82 109
e 82 112
e 83 84
e 83 85
e 83 90
e 83 93
e 83 94
e 83 97
e 83 98
e 83 101
e 83 102
e 83 105
e 83 111
e 84 87
e 84 89
e 84 94
e 84 97
e 84 104
e 84 107
e 84 111
e 84 112
e 85 96
e 85 97
e 85 100
e 85 109
e 86 89
e 86 93
e 86 99
e 86 100
e 86 101
e 86 103
e 86 107
e 86 111
e 87 88
e 87 90
e 87 91
e 87 92
e 87 93
e 87 97
e 87 100
e 87 104
e 87 106
e 87 109
e 87 112
e 87 113
e 88 94
e 88 97
e 88 100
e 88 102
e 88 106
e 88 107
e 88 109
e 88 111
e 89 90
e 89 91
e 89 98
e 89 99
e 89 100
e 89 101
e 89 103
e 89 107
e 89 108
e 89 110
e 89 111
e 90 96
e 90 100
e 90 101
e 90 112
e 90 113
e 91 105
e 91 108
e 91 111
e 91 112
e 91 113
e 92 96
e 92 102
e 92 105
e 93 94
e 93 100
e 93 102
e 93 106
e 93 108
e 93 109
e 94 96
e 94 97
e 94 104
e 95 96
e 95 105
e 95 109
e 95 112
e 96 98
e 96 99
e 96 109
e 97 104
e 97 111
e 98 99
e 98 102
e 98 112
e 99 100
e 99 103
e 99 104
e 99 111
e 100 103
e 100 107
e 100 110
e 100 111
e 100 112
e 101 104
e 101 105
e 101 106
e 101 108
e 101 110
e 101 112
e 102 107
e 102 108
e 102 109
e 103 104
e 103 108
e 103 111
e 104 105
e 104 107
e 104 108
e 104 109
e 104 110
e 105 107
e 105 109
e 106 109
e 107 109
e 107 111
e 108 109
e 108 110
e 108 113
e 111 112
